n = 8;
k = 4;
maxsize = 8;
nML = 2;
nCL = 2;
deg = [1, 2, 1, 2, 2, 2, 2, 2];
ML = array2d(1..2, 1..2, [4, 5, 7, 8]);
CL = array2d(1..2, 1..2, [3, 2, 6, 1]);
A = array2d(1..8, 1..8, [ 0, 0, 0, 0, 1, 0, 0, 0, 0, 0, 0, 0, 0, 1, 0, 1, 0, 0, 0, 0, 1, 0, 0, 0, 0, 0, 0, 0, 0, 0, 1, 1, 1, 0, 1, 0, 0, 0, 0, 0, 0, 1, 0, 0, 0, 0, 1, 0, 0, 0, 0, 1, 0, 1, 0, 0, 0, 1, 0, 1, 0, 0, 0, 0 ]);
W = array2d(1..8, 1..8, [ 2, -7, 0, -9, 6, -7, 2, -7, -2, -9, 8, -7, 5, 3, 1, 7, 8, -9, 2, 6, -1, -7, -1, 1, 5, -4, -6, 0, 5, 6, -4, -5, -8, 1, 1, 9, -1, 4, 0, 10, 5, 3, -10, -5, 5, -5, 5, -3, -6, -9, 4, 8, 3, 1, 3, -1, 3, 10, -3, 1, 5, -8, 7, 8 ]);